# arene_34_rdkit_conf_1
%maxcore 16000
%pal nprocs 8 end
! m062x d3zero def2-SVP def2/J defgrid3 tightSCF Hirshfeld Normalprint Printbasis PrintMOs opt freq

%nbo NBOKEYLIST = "$NBO NPA BNDIDX $End" end

* xyz 0 1
 C  -1.14000000  -1.16410000  -0.10370000
 C  -1.59900000   0.09040000  -0.10580000
 O  -0.81880000   1.20560000   0.09280000
 N   0.42600000   0.83100000   0.76620000
 S   1.60710000   1.93550000   0.43090000
 N   2.61840000   0.90280000  -0.41680000
 N   2.13850000  -0.25820000  -0.45410000
 N   0.97350000  -0.35320000   0.26120000
 O   0.17440000  -1.51540000   0.09650000
 H  -1.75340000  -2.03770000  -0.27100000
 H  -2.62650000   0.36320000  -0.29630000
*

