# arene_9_rdkit_conf_1
%maxcore 16000
%pal nprocs 8 end
! m062x d3zero def2-SVP def2/J defgrid3 tightSCF Hirshfeld Normalprint Printbasis PrintMOs opt freq

%nbo NBOKEYLIST = "$NBO NPA BNDIDX $End" end

* xyz 0 1
 O  -3.21270000  -1.84040000  -0.44110000
 C  -2.27340000  -1.07190000  -0.30670000
 O  -1.00050000  -1.49430000  -0.16090000
 C   0.08700000  -0.62600000  -0.00520000
 N   1.32160000  -1.22470000   0.13120000
 C   2.45140000  -0.46390000   0.28970000
 C   2.36090000   0.87330000   0.31280000
 O   1.14010000   1.52630000   0.17920000
 C   0.00340000   0.71980000   0.01890000
 C  -1.30430000   1.36620000  -0.12530000
 O  -1.45410000   2.57870000  -0.11190000
 C  -2.47280000   0.43430000  -0.29390000
 O  -3.59930000   0.89640000  -0.42250000
 H   1.38320000  -2.23710000   0.11310000
 H   3.38800000  -1.00170000   0.39120000
 H   3.18160000   1.56490000   0.43150000
*

