# arene_5_rdkit_conf_1
%maxcore 16000
%pal nprocs 8 end
! m062x d3zero def2-SVP def2/J defgrid3 tightSCF Hirshfeld Normalprint Printbasis PrintMOs opt freq

%nbo NBOKEYLIST = "$NBO NPA BNDIDX $End" end

* xyz 0 1
 O   3.44480000  -1.12100000   0.11650000
 C   2.34780000  -0.57080000   0.10870000
 C   2.24410000   0.87780000  -0.11310000
 C   1.01680000   1.39930000  -0.15230000
 N  -0.15770000   0.68450000  -0.03290000
 S  -1.49150000   1.54000000   0.52900000
 C  -2.77110000   0.44700000   0.12720000
 C  -2.62080000  -0.81290000  -0.30260000
 S  -1.11420000  -1.62060000  -0.57170000
 N  -0.08550000  -0.67960000   0.34070000
 N   1.18150000  -1.25480000   0.30280000
 H   3.15180000   1.45160000  -0.22370000
 H   0.89100000   2.46770000  -0.30540000
 H  -3.77750000   0.83490000   0.25100000
 H  -3.51130000  -1.39170000  -0.52800000
 H   1.25180000  -2.25150000   0.45400000
*

