# arene_114_rdkit_conf_1
%maxcore 16000
%pal nprocs 8 end
! m062x d3zero def2-SVP def2/J defgrid3 tightSCF Hirshfeld Normalprint Printbasis PrintMOs opt freq

%nbo NBOKEYLIST = "$NBO NPA BNDIDX $End" end

* xyz 0 1
 O   1.57660000   2.37330000   0.45200000
 C   1.52260000   1.21190000   0.06150000
 S   2.95530000   0.41160000  -0.56240000
 N   2.71630000  -1.11590000   0.07830000
 N   1.59990000  -1.67790000   0.00360000
 N   0.50370000  -0.93120000  -0.29240000
 S  -0.89350000  -1.77620000  -0.73720000
 C  -2.11170000  -0.62470000  -0.32890000
 C  -1.86360000   0.48970000   0.36750000
 O  -0.65070000   0.89790000   0.86390000
 N   0.41100000   0.40230000   0.06820000
 H  -3.12780000  -0.84660000  -0.63840000
 H  -2.63820000   1.18570000   0.66430000
*

