# arene_732_rdkit_conf_1
%maxcore 16000
%pal nprocs 8 end
! m062x d3zero def2-SVP def2/J defgrid3 tightSCF Hirshfeld Normalprint Printbasis PrintMOs opt freq

%nbo NBOKEYLIST = "$NBO NPA BNDIDX $End" end

* xyz 0 1
 O  -0.26680000   2.53640000   0.39900000
 C  -0.43980000   1.32690000   0.24250000
 N  -1.71820000   0.80530000   0.08120000
 C  -1.97430000  -0.53320000  -0.10150000
 C  -0.93740000  -1.37500000  -0.19050000
 N   0.35310000  -0.91130000  -0.13530000
 O   1.42130000  -1.78000000   0.00450000
 N   2.65610000  -1.21840000  -0.40150000
 N   2.87690000   0.01360000  -0.26430000
 N   1.91250000   0.77930000   0.32310000
 N   0.59470000   0.39060000   0.22920000
 H  -2.47580000   1.47480000   0.12710000
 H  -3.00980000  -0.84560000  -0.16770000
 H  -1.04350000  -2.44370000  -0.33170000
 H   2.05100000   1.78020000   0.18600000
*

