# arene_127_rdkit_conf_1
%maxcore 16000
%pal nprocs 8 end
! m062x d3zero def2-SVP def2/J defgrid3 tightSCF Hirshfeld Normalprint Printbasis PrintMOs opt freq

%nbo NBOKEYLIST = "$NBO NPA BNDIDX $End" end

* xyz 0 1
 O   1.29450000  -2.60150000   0.02910000
 C   1.10730000  -1.38770000  -0.00050000
 C   2.28290000  -0.51080000  -0.07210000
 C   2.15070000   0.81170000  -0.10700000
 C   0.83080000   1.47070000  -0.07630000
 O   0.83960000   2.69730000  -0.11380000
 N  -0.27540000   0.64230000  -0.00890000
 C  -1.56200000   1.17400000   0.02440000
 O  -1.85510000   2.36800000  -0.00050000
 N  -2.59220000   0.26160000   0.09150000
 N  -2.46800000  -1.08680000   0.12750000
 C  -1.26100000  -1.54470000   0.09510000
 N  -0.12560000  -0.77600000   0.02830000
 H   3.25280000  -0.99370000  -0.09460000
 H   3.01060000   1.47050000  -0.15990000
 H  -3.53500000   0.63870000   0.11620000
 H  -1.09480000  -2.63370000   0.12160000
*

