# arene_23_rdkit_conf_1
%maxcore 16000
%pal nprocs 8 end
! m062x d3zero def2-SVP def2/J defgrid3 tightSCF Hirshfeld Normalprint Printbasis PrintMOs opt freq

%nbo NBOKEYLIST = "$NBO NPA BNDIDX $End" end

* xyz 0 1
 C  -2.11140000  -0.26690000  -0.04730000
 C  -2.13930000   1.06780000   0.03730000
 S  -0.70940000   2.04430000   0.13990000
 C   0.55720000   0.82480000   0.03720000
 N   1.89150000   1.17870000   0.03800000
 N   2.94520000   0.32440000   0.09640000
 N   2.70720000  -0.91250000   0.03500000
 N   1.41320000  -1.31540000  -0.11520000
 C   0.29840000  -0.50400000  -0.04440000
 N  -0.97610000  -1.02770000  -0.06010000
 H  -3.03130000  -0.84060000  -0.11510000
 H  -3.09190000   1.58690000   0.04200000
 H   2.07130000   2.16250000   0.19360000
 H   1.24280000  -2.30400000   0.00400000
 H  -1.06740000  -2.01810000  -0.24160000
*

