# arene_1595_rdkit_conf_1
%maxcore 16000
%pal nprocs 8 end
! m062x d3zero def2-SVP def2/J defgrid3 tightSCF Hirshfeld Normalprint Printbasis PrintMOs opt freq

%nbo NBOKEYLIST = "$NBO NPA BNDIDX $End" end

* xyz 0 1
 O   3.85170000  -0.71750000   0.81600000
 C   2.79950000  -0.38210000   0.28810000
 N   1.81580000  -1.28610000  -0.01270000
 C   0.65560000  -0.80460000  -0.25280000
 S  -0.68160000  -1.75730000  -0.76510000
 C  -2.07260000  -1.02470000  -0.07440000
 C  -2.18860000   0.28140000   0.16160000
 C  -1.08120000   1.20670000  -0.10910000
 O  -1.28750000   2.40550000  -0.21930000
 C   0.31530000   0.62890000  -0.18980000
 N   1.30030000   1.47390000  -0.13560000
 O   2.61320000   0.92360000  -0.13570000
 H  -2.92820000  -1.67090000   0.10940000
 H  -3.11170000   0.72330000   0.51960000
*

