# arene_1193_rdkit_conf_1
%maxcore 16000
%pal nprocs 8 end
! m062x d3zero def2-SVP def2/J defgrid3 tightSCF Hirshfeld Normalprint Printbasis PrintMOs opt freq

%nbo NBOKEYLIST = "$NBO NPA BNDIDX $End" end

* xyz 0 1
 O   3.62350000  -0.22730000  -0.02630000
 C   2.41250000  -0.15820000   0.00420000
 N   1.51900000  -1.20750000  -0.04030000
 N   0.26530000  -0.69210000  -0.31950000
 C  -0.89480000  -1.36150000  -0.01320000
 C  -2.04600000  -0.70720000   0.16940000
 N  -2.03790000   0.66330000   0.11690000
 C  -0.89030000   1.43260000  -0.03420000
 O  -0.98500000   2.65750000  -0.00640000
 N   0.28770000   0.72090000  -0.25360000
 C   1.57770000   1.14000000   0.01380000
 O   2.05010000   2.24390000   0.19140000
 H   1.81630000  -2.05540000  -0.50740000
 H  -0.81820000  -2.44120000   0.05270000
 H  -2.98940000  -1.19750000   0.38160000
 H  -2.89030000   1.18980000   0.27090000
*

