# arene_186_rdkit_conf_1
%maxcore 16000
%pal nprocs 8 end
! m062x d3zero def2-SVP def2/J defgrid3 tightSCF Hirshfeld Normalprint Printbasis PrintMOs opt freq

%nbo NBOKEYLIST = "$NBO NPA BNDIDX $End" end

* xyz 0 1
 O  -1.77710000   2.38930000   0.16780000
 C  -1.49810000   1.20410000   0.08690000
 O  -2.41840000   0.19680000   0.02280000
 C  -1.73810000  -0.99300000  -0.06000000
 O  -2.30020000  -2.07250000  -0.13040000
 N  -0.39060000  -0.71360000  -0.04650000
 C   0.69470000  -1.57560000  -0.10880000
 O   0.61040000  -2.79670000  -0.19060000
 O   1.94880000  -0.97320000  -0.07320000
 C   2.04340000   0.42600000   0.02060000
 C   0.97380000   1.21890000   0.07820000
 N  -0.25190000   0.64140000   0.04420000
 H   3.07570000   0.74720000   0.03810000
 H   1.02760000   2.30070000   0.15080000
*

