# arene_335_rdkit_conf_1
%maxcore 16000
%pal nprocs 8 end
! m062x d3zero def2-SVP def2/J defgrid3 tightSCF Hirshfeld Normalprint Printbasis PrintMOs opt freq

%nbo NBOKEYLIST = "$NBO NPA BNDIDX $End" end

* xyz 0 1
 O   3.87580000  -0.61110000   0.05210000
 C   2.72600000  -0.18370000   0.05170000
 N   2.51500000   1.17930000   0.13000000
 N   1.35320000   1.63870000   0.13120000
 N   0.29950000   0.78340000   0.05470000
 C  -0.97210000   1.36030000   0.06060000
 O  -1.21410000   2.56410000   0.12840000
 C  -2.12120000   0.41330000  -0.02370000
 C  -1.86560000  -0.89570000  -0.09770000
 N  -0.59220000  -1.38360000  -0.09810000
 C   0.51450000  -0.58030000  -0.02350000
 N   1.69730000  -1.09100000  -0.02740000
 H  -3.11830000   0.83300000  -0.02110000
 H  -2.65350000  -1.64040000  -0.16130000
 H  -0.44430000  -2.38620000  -0.15580000
*

