# arene_10_rdkit_conf_1
%maxcore 16000
%pal nprocs 8 end
! m062x d3zero def2-SVP def2/J defgrid3 tightSCF Hirshfeld Normalprint Printbasis PrintMOs opt freq

%nbo NBOKEYLIST = "$NBO NPA BNDIDX $End" end

* xyz 0 1
 O   3.54320000   1.17230000   0.08650000
 C   2.60520000   0.51230000  -0.33970000
 O   2.55310000  -0.83240000  -0.13840000
 C   1.42240000  -1.46860000  -0.46860000
 O   1.39150000  -2.58380000  -0.96300000
 C   0.12700000  -0.75120000  -0.08480000
 N  -0.77180000  -1.39020000   0.59970000
 C  -1.91580000  -0.70310000   0.89650000
 C  -2.15300000   0.56530000   0.55670000
 C  -1.11120000   1.30220000  -0.18390000
 O  -1.29650000   2.48650000  -0.44760000
 N   0.00980000   0.55720000  -0.50050000
 S   1.33170000   1.30830000  -1.26770000
 H  -2.66900000  -1.26260000   1.44870000
 H  -3.06640000   1.08810000   0.80590000
*

