# arene_59_rdkit_conf_1
%maxcore 16000
%pal nprocs 8 end
! m062x d3zero def2-SVP def2/J defgrid3 tightSCF Hirshfeld Normalprint Printbasis PrintMOs opt freq

%nbo NBOKEYLIST = "$NBO NPA BNDIDX $End" end

* xyz 0 1
 C  -1.95230000   0.23730000  -0.05770000
 C  -1.64320000  -1.06640000  -0.04930000
 O  -0.34450000  -1.55370000  -0.03770000
 N   0.57430000  -0.53010000  -0.36620000
 C   1.86140000  -0.86550000  -0.06850000
 N   2.83630000  -0.04730000   0.15640000
 N   2.50460000   1.31490000   0.02200000
 N   1.30800000   1.70120000   0.02750000
 N   0.32360000   0.76800000   0.08380000
 N  -0.98320000   1.21210000  -0.10560000
 H  -2.97330000   0.60070000  -0.02230000
 H  -2.36240000  -1.87050000   0.00240000
 H   2.03820000  -1.95210000  -0.01560000
 H  -1.18740000   2.05140000   0.43080000
*

