# arene_64_rdkit_conf_1
%maxcore 16000
%pal nprocs 8 end
! m062x d3zero def2-SVP def2/J defgrid3 tightSCF Hirshfeld Normalprint Printbasis PrintMOs opt freq

%nbo NBOKEYLIST = "$NBO NPA BNDIDX $End" end

* xyz 0 1
 O  -3.59970000  -1.18020000   0.26650000
 C  -2.55660000  -0.54300000   0.18440000
 N  -2.55890000   0.83600000   0.16190000
 C  -1.41720000   1.42920000   0.07380000
 C  -0.08180000   0.79380000  -0.00740000
 S   1.25940000   1.87400000  -0.11730000
 C   2.54990000   0.73190000  -0.18710000
 C   2.37710000  -0.59270000  -0.15340000
 O   1.18270000  -1.25790000  -0.06050000
 C  -0.00160000  -0.54310000   0.00900000
 C  -1.24800000  -1.34490000   0.10780000
 O  -1.23460000  -2.56770000   0.12700000
 H  -1.42540000   2.53370000   0.05620000
 H   3.55780000   1.13030000  -0.26280000
 H   3.19690000  -1.29940000  -0.19810000
*

