# arene_1891_rdkit_conf_1
%maxcore 16000
%pal nprocs 8 end
! m062x d3zero def2-SVP def2/J defgrid3 tightSCF Hirshfeld Normalprint Printbasis PrintMOs opt freq

%nbo NBOKEYLIST = "$NBO NPA BNDIDX $End" end

* xyz 0 1
 O  -1.75980000  -2.33410000   0.95390000
 C  -1.63270000  -1.17710000   0.54450000
 O  -2.74710000  -0.35590000   0.52860000
 N  -2.72820000   0.83250000  -0.23760000
 C  -1.55200000   1.25110000  -0.55420000
 N  -0.33580000   0.66800000  -0.33580000
 S   0.89660000   1.62750000   0.27580000
 C   2.26000000   0.57740000   0.13700000
 C   2.23590000  -0.73830000  -0.10720000
 S   0.83480000  -1.71270000  -0.36480000
 N  -0.41150000  -0.64430000   0.11720000
 H  -1.47300000   2.22150000  -1.07560000
 H   3.22800000   1.04990000   0.28190000
 H   3.18470000  -1.26530000  -0.16370000
*

