# arene_239_rdkit_conf_1
%maxcore 16000
%pal nprocs 8 end
! m062x d3zero def2-SVP def2/J defgrid3 tightSCF Hirshfeld Normalprint Printbasis PrintMOs opt freq

%nbo NBOKEYLIST = "$NBO NPA BNDIDX $End" end

* xyz 0 1
 C   1.82180000  -0.45710000  -0.17480000
 C   1.60590000   0.98610000  -0.08510000
 C   0.34310000   1.44630000   0.02010000
 N  -0.73960000   0.58220000  -0.01450000
 O  -1.97100000   0.99460000   0.47230000
 N  -3.03990000   0.17840000   0.04870000
 N  -2.85440000  -1.06160000  -0.02830000
 O  -1.58640000  -1.57560000   0.31270000
 N  -0.53780000  -0.76640000  -0.09820000
 C   0.75020000  -1.27470000  -0.14890000
 H   2.83490000  -0.83880000  -0.21640000
 H   2.46270000   1.64880000  -0.06190000
 H   0.09250000   2.49310000   0.13770000
 H   0.81790000  -2.35530000  -0.16340000
*

