# arene_18_rdkit_conf_1
%maxcore 16000
%pal nprocs 8 end
! m062x d3zero def2-SVP def2/J defgrid3 tightSCF Hirshfeld Normalprint Printbasis PrintMOs opt freq

%nbo NBOKEYLIST = "$NBO NPA BNDIDX $End" end

* xyz 0 1
 C  -2.48350000   0.29600000   0.38250000
 C  -1.48280000   1.16740000   0.60820000
 N  -0.15640000   0.82610000   0.33360000
 S   1.02670000   1.97230000   0.64490000
 C   2.50060000   1.18540000   0.18360000
 C   2.53640000  -0.06160000  -0.29830000
 N   1.44450000  -0.85870000  -0.48560000
 C   0.15270000  -0.46140000  -0.19340000
 C  -0.89500000  -1.30600000  -0.40370000
 N  -2.20270000  -0.95180000  -0.12630000
 H  -3.52590000   0.51520000   0.57940000
 H  -1.65940000   2.15950000   1.00760000
 H   3.41940000   1.74850000   0.30000000
 H   3.47750000  -0.52480000  -0.57780000
 H   1.57810000  -1.78970000  -0.85700000
 H  -0.77720000  -2.30690000  -0.80020000
 H  -2.95270000  -1.60980000  -0.29730000
*

