# arene_6_rdkit_conf_1
%maxcore 16000
%pal nprocs 8 end
! m062x d3zero def2-SVP def2/J defgrid3 tightSCF Hirshfeld Normalprint Printbasis PrintMOs opt freq

%nbo NBOKEYLIST = "$NBO NPA BNDIDX $End" end

* xyz 0 1
 O   3.63680000  -0.59120000   0.34920000
 C   2.42150000  -0.48920000   0.32440000
 N   1.65790000   0.05640000  -0.67860000
 N   0.36900000   0.32930000  -0.25980000
 O  -0.60950000   0.41260000  -1.33820000
 C  -1.86940000   0.47300000  -0.76080000
 C  -2.13720000   0.14630000   0.51470000
 O  -1.18850000  -0.29010000   1.42800000
 N  -0.00530000  -0.69270000   0.67820000
 S   1.32820000  -0.99330000   1.61330000
 H   2.11710000   0.63720000  -1.36450000
 H  -2.60740000   0.79740000  -1.47910000
 H  -3.11320000   0.20410000   0.97320000
*

