# arene_13_rdkit_conf_1
%maxcore 16000
%pal nprocs 8 end
! m062x d3zero def2-SVP def2/J defgrid3 tightSCF Hirshfeld Normalprint Printbasis PrintMOs opt freq

%nbo NBOKEYLIST = "$NBO NPA BNDIDX $End" end

* xyz 0 1
 O  -0.74850000  -2.63940000  -0.14740000
 C  -0.66290000  -1.41520000  -0.14540000
 C  -1.89630000  -0.57490000  -0.09860000
 C  -1.76660000   0.75000000   0.06080000
 N  -0.55120000   1.38370000   0.16770000
 N   0.55490000   0.66370000  -0.27050000
 C   1.85060000   1.03780000   0.09790000
 O   2.22330000   2.17790000   0.33800000
 N   2.63260000  -0.11030000   0.18400000
 C   1.81050000  -1.09650000   0.04140000
 N   0.52440000  -0.70880000  -0.21150000
 H  -2.85000000  -1.08020000  -0.16220000
 H  -2.62740000   1.40940000   0.12450000
 H  -0.52340000   2.37340000  -0.08670000
 H   2.02990000  -2.17060000   0.10790000
*

