# arene_322_rdkit_conf_1
%maxcore 16000
%pal nprocs 8 end
! m062x d3zero def2-SVP def2/J defgrid3 tightSCF Hirshfeld Normalprint Printbasis PrintMOs opt freq

%nbo NBOKEYLIST = "$NBO NPA BNDIDX $End" end

* xyz 0 1
 O  -3.07900000  -2.23020000  -0.41330000
 C  -2.17370000  -1.41430000  -0.28390000
 C  -2.48790000   0.01400000  -0.24450000
 C  -1.52840000   0.92660000  -0.10500000
 N  -0.20550000   0.58830000   0.00870000
 C   0.78980000   1.55240000   0.15420000
 O   0.58780000   2.76130000   0.19380000
 C   2.22140000   1.02430000   0.26930000
 O   3.17170000   1.78240000   0.39990000
 N   2.37960000  -0.33260000   0.21850000
 C   1.38730000  -1.25860000   0.07490000
 O   1.68660000  -2.45070000   0.04570000
 N   0.10300000  -0.76400000  -0.02750000
 O  -0.87270000  -1.78140000  -0.17390000
 H  -3.53280000   0.28340000  -0.33420000
 H  -1.76900000   1.98770000  -0.07650000
 H   3.32150000  -0.68860000   0.29380000
*

