# arene_247_rdkit_conf_1
%maxcore 16000
%pal nprocs 8 end
! m062x d3zero def2-SVP def2/J defgrid3 tightSCF Hirshfeld Normalprint Printbasis PrintMOs opt freq

%nbo NBOKEYLIST = "$NBO NPA BNDIDX $End" end

* xyz 0 1
 O   3.67980000  -0.17560000  -0.12970000
 C   2.46920000   0.01730000  -0.07880000
 N   2.01330000   1.32510000   0.01550000
 N   0.79390000   1.59960000   0.07170000
 N  -0.05250000   0.54290000   0.03470000
 C  -1.41270000   0.74040000   0.09080000
 C  -2.22590000  -0.32000000   0.05250000
 N  -1.73860000  -1.60240000  -0.04130000
 N  -0.49780000  -1.83740000  -0.09570000
 C   0.39010000  -0.76560000  -0.05920000
 N   1.64090000  -1.07600000  -0.11860000
 H  -1.75520000   1.76540000   0.16420000
 H  -3.30460000  -0.21390000   0.09390000
*

