# arene_16_rdkit_conf_1
%maxcore 16000
%pal nprocs 8 end
! m062x d3zero def2-SVP def2/J defgrid3 tightSCF Hirshfeld Normalprint Printbasis PrintMOs opt freq

%nbo NBOKEYLIST = "$NBO NPA BNDIDX $End" end

* xyz 0 1
 C   1.09050000  -0.02730000  -0.13400000
 C  -0.03120000   0.70580000   0.16480000
 N  -1.05830000  -0.11880000  -0.18220000
 N  -0.60670000  -1.28570000  -0.66420000
 N   0.71880000  -1.24040000  -0.63910000
 H   2.12980000   0.24350000  -0.01670000
 H  -0.18390000   1.69260000   0.57350000
 H  -2.05920000   0.03030000  -0.12510000
*

