# arene_1679_rdkit_conf_1
%maxcore 16000
%pal nprocs 8 end
! m062x d3zero def2-SVP def2/J defgrid3 tightSCF Hirshfeld Normalprint Printbasis PrintMOs opt freq

%nbo NBOKEYLIST = "$NBO NPA BNDIDX $End" end

* xyz 0 1
 C  -1.98700000   0.93220000   0.18690000
 C  -2.11760000  -0.44540000   0.05230000
 N  -1.04040000  -1.23140000  -0.07770000
 C   0.19490000  -0.66380000  -0.07680000
 N   1.40760000  -1.28930000  -0.19670000
 C   2.40040000  -0.34140000  -0.14570000
 C   1.81060000   0.89640000   0.00800000
 C   0.40680000   0.70080000   0.05280000
 C  -0.71950000   1.52710000   0.18920000
 H  -2.87290000   1.55700000   0.29160000
 H  -3.08280000  -0.94170000   0.04610000
 H  -1.14810000  -2.23910000  -0.17570000
 H   1.57560000  -2.28180000  -0.30580000
 H   3.44430000  -0.62460000  -0.22280000
 H   2.34100000   1.83980000   0.07980000
 H  -0.61300000   2.60530000   0.29440000
*

