# arene_177_rdkit_conf_1
%maxcore 16000
%pal nprocs 8 end
! m062x d3zero def2-SVP def2/J defgrid3 tightSCF Hirshfeld Normalprint Printbasis PrintMOs opt freq

%nbo NBOKEYLIST = "$NBO NPA BNDIDX $End" end

* xyz 0 1
 O   2.91860000   1.07650000  -0.28220000
 C   2.09400000   0.17520000  -0.16070000
 N   2.45260000  -1.14980000  -0.09350000
 N   1.63360000  -2.08580000   0.03000000
 C   0.27040000  -1.89830000   0.11350000
 O  -0.48550000  -2.86330000   0.23460000
 N  -0.22670000  -0.59450000   0.05760000
 C  -1.58660000  -0.34110000   0.13630000
 C  -2.17670000   0.85830000   0.09430000
 S  -1.34830000   2.35640000  -0.06910000
 C   0.27260000   1.76650000  -0.14280000
 C   0.63120000   0.47250000  -0.07780000
 H  -2.22040000  -1.22170000   0.24280000
 H  -3.25990000   0.91000000   0.16750000
 H   1.03100000   2.53910000  -0.25060000
*

