# arene_26_rdkit_conf_1
%maxcore 16000
%pal nprocs 8 end
! m062x d3zero def2-SVP def2/J defgrid3 tightSCF Hirshfeld Normalprint Printbasis PrintMOs opt freq

%nbo NBOKEYLIST = "$NBO NPA BNDIDX $End" end

* xyz 0 1
 O  -0.21020000   2.81560000   0.05050000
 C  -0.30960000   1.59340000   0.04030000
 O  -1.56300000   0.98290000   0.10950000
 C  -1.71090000  -0.42460000   0.09990000
 C  -0.66370000  -1.24890000   0.02430000
 N   0.59670000  -0.69610000  -0.04610000
 N   1.80740000  -1.28390000  -0.12860000
 N   2.69040000  -0.29400000  -0.16980000
 N   2.06860000   0.92810000  -0.11520000
 C   0.78220000   0.66390000  -0.03940000
 H  -2.75320000  -0.70780000   0.16040000
 H  -0.73470000  -2.32840000   0.01430000
*

