# arene_8_rdkit_conf_1
%maxcore 16000
%pal nprocs 8 end
! m062x d3zero def2-SVP def2/J defgrid3 tightSCF Hirshfeld Normalprint Printbasis PrintMOs opt freq

%nbo NBOKEYLIST = "$NBO NPA BNDIDX $End" end

* xyz 0 1
 C   2.09570000   0.51350000  -0.43710000
 C   2.30960000  -0.79640000  -0.59470000
 S   1.04110000  -1.96300000  -0.45590000
 C  -0.35440000  -0.98810000   0.02920000
 N  -1.46380000  -1.63640000   0.26110000
 N  -2.52020000  -0.90470000   0.71190000
 N  -2.59720000   0.43760000   0.51510000
 C  -1.46920000   1.03260000   0.28550000
 N  -0.26820000   0.39300000   0.12340000
 N   0.88350000   1.10380000  -0.17420000
 H   2.91780000   1.22060000  -0.51340000
 H   3.30730000  -1.16490000  -0.80860000
 H  -3.41810000  -1.38490000   0.60460000
 H  -1.42630000   2.12690000   0.16620000
 H   0.96230000   2.01050000   0.28680000
*

