# arene_24_rdkit_conf_1
%maxcore 16000
%pal nprocs 8 end
! m062x d3zero def2-SVP def2/J defgrid3 tightSCF Hirshfeld Normalprint Printbasis PrintMOs opt freq

%nbo NBOKEYLIST = "$NBO NPA BNDIDX $End" end

* xyz 0 1
 O   3.43100000  -0.50850000  -0.88600000
 C   2.53550000  -0.30130000  -0.09270000
 S   2.29470000   1.14800000   0.82710000
 C   0.67760000   1.52650000   0.35030000
 C  -0.21550000   0.56510000   0.07090000
 C  -1.58740000   0.87840000  -0.22870000
 C  -2.44010000  -0.14220000  -0.33340000
 N  -2.06390000  -1.44310000  -0.15740000
 N  -0.86720000  -1.75770000   0.05460000
 N   0.10990000  -0.78170000   0.11700000
 C   1.41330000  -1.26730000   0.26650000
 O   1.72300000  -2.41790000   0.56660000
 H   0.39770000   2.57600000   0.34600000
 H  -1.91820000   1.90300000  -0.35030000
 H  -3.49040000   0.02270000  -0.55040000
*

