# arene_28_rdkit_conf_1
%maxcore 16000
%pal nprocs 8 end
! m062x d3zero def2-SVP def2/J defgrid3 tightSCF Hirshfeld Normalprint Printbasis PrintMOs opt freq

%nbo NBOKEYLIST = "$NBO NPA BNDIDX $End" end

* xyz 0 1
 O   2.03140000  -1.89600000  -1.08740000
 C   1.53340000  -0.94200000  -0.52250000
 C   2.27320000   0.14500000   0.16540000
 C   1.34290000   0.98360000   0.64520000
 C   0.04280000   0.50230000   0.30780000
 N  -1.19540000   1.01870000   0.58070000
 C  -2.29990000   0.31970000   0.11710000
 N  -2.28570000  -0.79960000  -0.56500000
 N  -1.01120000  -1.29440000  -0.82360000
 C   0.10620000  -0.63760000  -0.38520000
 H   3.34460000   0.19450000   0.23180000
 H   1.53960000   1.88600000   1.20220000
 H  -1.28140000   1.87780000   1.10170000
 H  -3.25640000   0.80080000   0.37810000
 H  -0.88420000  -2.15870000  -1.34630000
*

