# arene_3_rdkit_conf_1
%maxcore 16000
%pal nprocs 8 end
! m062x d3zero def2-SVP def2/J defgrid3 tightSCF Hirshfeld Normalprint Printbasis PrintMOs opt freq

%nbo NBOKEYLIST = "$NBO NPA BNDIDX $End" end

* xyz 0 1
 O  -3.64230000  -0.20430000   0.58030000
 C  -2.46830000  -0.03660000   0.29750000
 C  -2.12140000   0.99510000  -0.70970000
 N  -0.90180000   1.22870000  -1.05940000
 C   0.13520000   0.51110000  -0.49510000
 O   1.37560000   0.90170000  -0.99460000
 C   2.53650000   0.31860000  -0.57000000
 C   2.65210000  -0.65500000   0.33330000
 S   1.31340000  -1.36330000   1.14220000
 C   0.01040000  -0.46300000   0.43440000
 C  -1.34890000  -0.82590000   0.92050000
 O  -1.59550000  -1.68470000   1.75440000
 H  -2.96960000   1.54920000  -1.14040000
 H   3.38520000   0.76070000  -1.07620000
 H   3.63940000  -1.03230000   0.58300000
*

