# arene_11_rdkit_conf_1
%maxcore 16000
%pal nprocs 8 end
! m062x d3zero def2-SVP def2/J defgrid3 tightSCF Hirshfeld Normalprint Printbasis PrintMOs opt freq

%nbo NBOKEYLIST = "$NBO NPA BNDIDX $End" end

* xyz 0 1
 O  -1.50310000   2.48400000  -0.55910000
 C  -1.18570000   1.32910000  -0.31500000
 C  -2.22620000   0.28850000  -0.15030000
 C  -1.90970000  -0.98310000   0.11710000
 C  -0.50230000  -1.42280000   0.26360000
 O  -0.25140000  -2.59210000   0.50770000
 C   0.51980000  -0.38720000   0.09900000
 C   1.97450000  -0.52920000   0.18790000
 O   2.55250000  -1.57640000   0.42130000
 C   2.75560000   0.76430000  -0.03820000
 O   3.95430000   0.92710000  -0.02090000
 S   1.52870000   1.95650000  -0.32760000
 C   0.21410000   0.87660000  -0.16630000
 H  -3.25470000   0.61530000  -0.25840000
 H  -2.66660000  -1.75070000   0.23910000
*

