# arene_2298_rdkit_conf_1
%maxcore 16000
%pal nprocs 8 end
! m062x d3zero def2-SVP def2/J defgrid3 tightSCF Hirshfeld Normalprint Printbasis PrintMOs opt freq

%nbo NBOKEYLIST = "$NBO NPA BNDIDX $End" end

* xyz 0 1
 O  -1.55980000   2.14610000  -0.11380000
 C  -1.37280000   0.93160000  -0.11630000
 C  -2.58440000   0.08100000   0.14140000
 N  -2.67080000  -1.20510000   0.02420000
 S  -1.29400000  -2.00690000  -0.45260000
 N  -0.02910000  -1.07780000   0.08350000
 S   1.37800000  -1.78650000  -0.43660000
 C   2.48010000  -0.57440000   0.07890000
 C   2.11460000   0.70830000   0.12640000
 O   0.89380000   1.23230000  -0.21720000
 N  -0.16240000   0.26530000  -0.32150000
 H  -3.47370000   0.65180000   0.45360000
 H   3.49080000  -0.87000000   0.33690000
 H   2.78980000   1.50440000   0.41300000
*

