# arene_15_rdkit_conf_1
%maxcore 16000
%pal nprocs 8 end
! m062x d3zero def2-SVP def2/J defgrid3 tightSCF Hirshfeld Normalprint Printbasis PrintMOs opt freq

%nbo NBOKEYLIST = "$NBO NPA BNDIDX $End" end

* xyz 0 1
 O  -3.09050000   1.87900000   0.38690000
 C  -2.21910000   1.02040000   0.31700000
 N  -2.50130000  -0.31100000   0.29640000
 C  -1.57640000  -1.31800000   0.21950000
 O  -1.93490000  -2.49170000   0.20730000
 C  -0.14330000  -0.88990000   0.15390000
 S   1.04990000  -2.13150000   0.05630000
 C   2.57010000  -1.27510000  -0.00260000
 O   3.63700000  -1.87230000  -0.07610000
 C   2.56310000   0.20270000   0.03740000
 C   1.46220000   0.95890000   0.11700000
 C   0.12020000   0.42690000   0.17500000
 N  -0.89490000   1.34510000   0.25440000
 H  -3.47230000  -0.58020000   0.34150000
 H   3.54810000   0.65710000  -0.00340000
 H   1.58440000   2.03950000   0.13950000
 H  -0.70240000   2.34000000   0.27070000
*

