# arene_2_rdkit_conf_1
%maxcore 16000
%pal nprocs 8 end
! m062x d3zero def2-SVP def2/J defgrid3 tightSCF Hirshfeld Normalprint Printbasis PrintMOs opt freq

%nbo NBOKEYLIST = "$NBO NPA BNDIDX $End" end

* xyz 0 1
 C   2.18540000  -0.31420000   0.47830000
 C   2.37890000   0.83000000  -0.17820000
 S   1.09980000   1.73150000  -0.88730000
 N  -0.24530000   0.81990000  -0.52140000
 N  -1.42900000   1.35310000  -0.99660000
 N  -2.51880000   0.74820000  -0.78070000
 N  -2.48320000  -0.41760000  -0.08150000
 C  -1.34610000  -0.98560000   0.40820000
 C  -0.18210000  -0.36810000   0.19490000
 O   0.98430000  -0.93250000   0.68640000
 H   2.98820000  -0.88450000   0.92590000
 H   3.38330000   1.22640000  -0.28030000
 H  -3.36610000  -0.88990000   0.08290000
 H  -1.44920000  -1.91670000   0.94940000
*

