# arene_33_rdkit_conf_1
%maxcore 16000
%pal nprocs 8 end
! m062x d3zero def2-SVP def2/J defgrid3 tightSCF Hirshfeld Normalprint Printbasis PrintMOs opt freq

%nbo NBOKEYLIST = "$NBO NPA BNDIDX $End" end

* xyz 0 1
 O  -3.84500000   0.48370000  -0.53490000
 C  -2.68520000   0.10730000  -0.41270000
 N  -1.69960000   0.98760000  -0.10490000
 C  -0.39410000   0.66350000   0.04950000
 S   0.57520000   2.03420000   0.43820000
 C   2.13250000   1.32990000   0.56840000
 C   2.41760000   0.04040000   0.39490000
 C   1.42230000  -0.99530000   0.05910000
 O   1.82630000  -2.14470000  -0.07150000
 C   0.00280000  -0.60110000  -0.10170000
 C  -1.04220000  -1.58720000  -0.43710000
 O  -0.77980000  -2.77450000  -0.59680000
 O  -2.32690000  -1.18290000  -0.57460000
 H  -1.98770000   1.95210000   0.01280000
 H   2.94710000   2.00740000   0.81430000
 H   3.43680000  -0.32050000   0.49710000
*

