# arene_17_rdkit_conf_1
%maxcore 16000
%pal nprocs 8 end
! m062x d3zero def2-SVP def2/J defgrid3 tightSCF Hirshfeld Normalprint Printbasis PrintMOs opt freq

%nbo NBOKEYLIST = "$NBO NPA BNDIDX $End" end

* xyz 0 1
 O   3.74560000  -0.97840000   0.09330000
 C   2.62780000  -0.47760000   0.03560000
 C   1.42960000  -1.31610000   0.17020000
 C   0.20440000  -0.78510000   0.10960000
 N  -0.91750000  -1.57400000   0.23610000
 C  -2.07770000  -0.99940000   0.16850000
 C  -2.35440000   0.44310000  -0.03410000
 C  -1.28670000   1.23820000  -0.16090000
 C   0.03310000   0.64690000  -0.09280000
 C   1.14030000   1.38920000  -0.21250000
 O   2.44060000   0.86530000  -0.15380000
 H   1.58780000  -2.37530000   0.31950000
 H  -2.97710000  -1.63000000   0.26970000
 H  -3.37770000   0.78770000  -0.07060000
 H  -1.39810000   2.30640000  -0.31200000
 H   1.17980000   2.45920000  -0.36580000
*

