# arene_36_rdkit_conf_1
%maxcore 16000
%pal nprocs 8 end
! m062x d3zero def2-SVP def2/J defgrid3 tightSCF Hirshfeld Normalprint Printbasis PrintMOs opt freq

%nbo NBOKEYLIST = "$NBO NPA BNDIDX $End" end

* xyz 0 1
 O   3.62980000  -0.19310000   0.00940000
 C   2.41460000  -0.12840000   0.00620000
 C   1.63420000   1.11440000   0.08990000
 C   0.36430000   0.71390000   0.05330000
 N  -0.81540000   1.42270000   0.09630000
 C  -2.03840000   0.78110000   0.04270000
 C  -2.10950000  -0.56050000  -0.05340000
 N  -0.96120000  -1.32820000  -0.10090000
 C   0.28670000  -0.74860000  -0.05160000
 C   1.50710000  -1.28150000  -0.08180000
 H   2.05080000   2.09970000   0.16290000
 H  -0.78560000   2.43130000   0.16850000
 H  -2.91130000   1.42250000   0.08290000
 H  -3.04530000  -1.10560000  -0.09830000
 H  -1.03820000  -2.33430000  -0.17320000
 H   1.81730000  -2.30540000  -0.15290000
*

