# arene_21_rdkit_conf_1
%maxcore 16000
%pal nprocs 8 end
! m062x d3zero def2-SVP def2/J defgrid3 tightSCF Hirshfeld Normalprint Printbasis PrintMOs opt freq

%nbo NBOKEYLIST = "$NBO NPA BNDIDX $End" end

* xyz 0 1
 O  -1.47320000   2.34800000   0.84150000
 C  -1.18480000   1.21710000   0.45620000
 C  -2.27430000   0.25710000   0.19260000
 C  -1.95330000  -0.96870000  -0.22540000
 N  -0.67800000  -1.41670000  -0.43320000
 C   0.28090000  -0.57110000  -0.20100000
 C   1.67360000  -0.98030000  -0.40170000
 C   2.58890000  -0.05110000  -0.13990000
 N   2.30190000   1.21090000   0.28840000
 N   1.12290000   1.59090000   0.46930000
 N   0.08680000   0.72220000   0.23310000
 H  -3.29140000   0.58740000   0.34950000
 H  -2.74120000  -1.69170000  -0.42550000
 H   1.89710000  -1.98070000  -0.74100000
 H   3.64420000  -0.27320000  -0.26300000
*

