# arene_19_rdkit_conf_1
%maxcore 16000
%pal nprocs 8 end
! m062x d3zero def2-SVP def2/J defgrid3 tightSCF Hirshfeld Normalprint Printbasis PrintMOs opt freq

%nbo NBOKEYLIST = "$NBO NPA BNDIDX $End" end

* xyz 0 1
 O   1.01140000  -2.51780000  -0.04560000
 C   0.99920000  -1.28990000  -0.05030000
 C   2.27340000  -0.55900000  -0.12480000
 C   2.36720000   0.77030000  -0.13590000
 S   1.05360000   1.87230000  -0.06720000
 C  -0.30420000   0.80580000   0.01350000
 C  -1.65580000   1.44800000   0.08640000
 O  -1.78290000   2.66700000   0.08820000
 N  -2.74500000   0.62190000   0.15100000
 C  -2.59290000  -0.64960000   0.14800000
 O  -1.42780000  -1.32410000   0.08570000
 C  -0.27460000  -0.53040000   0.01770000
 H   3.16160000  -1.18060000  -0.17190000
 H   3.35830000   1.21480000  -0.19330000
 H  -3.44160000  -1.34860000   0.19860000
*

