# arene_795_rdkit_conf_1
%maxcore 16000
%pal nprocs 8 end
! m062x d3zero def2-SVP def2/J defgrid3 tightSCF Hirshfeld Normalprint Printbasis PrintMOs opt freq

%nbo NBOKEYLIST = "$NBO NPA BNDIDX $End" end

* xyz 0 1
 O   3.83890000  -0.56930000  -0.14050000
 C   2.61950000  -0.53080000  -0.12560000
 N   1.85250000   0.61210000  -0.09090000
 N   0.51360000   0.37450000   0.20620000
 C  -0.45100000   1.32160000  -0.02150000
 C  -1.75940000   1.06950000  -0.06370000
 C  -2.17580000  -0.33660000   0.10180000
 O  -3.35630000  -0.60800000   0.27400000
 C  -1.10110000  -1.43060000   0.02470000
 O  -1.44320000  -2.58980000  -0.18210000
 N   0.20080000  -0.98490000   0.20170000
 S   1.57240000  -1.94110000  -0.08500000
 H   2.28850000   1.45860000   0.25070000
 H  -0.07610000   2.33340000  -0.14800000
 H  -2.52320000   1.82140000  -0.20190000
*

