# arene_738_rdkit_conf_1
%maxcore 16000
%pal nprocs 8 end
! m062x d3zero def2-SVP def2/J defgrid3 tightSCF Hirshfeld Normalprint Printbasis PrintMOs opt freq

%nbo NBOKEYLIST = "$NBO NPA BNDIDX $End" end

* xyz 0 1
 O  -0.04020000   2.58420000  -0.19300000
 C   0.29960000   1.41260000  -0.07580000
 C   1.71880000   1.03910000   0.08250000
 C   2.08530000  -0.23970000   0.21010000
 C   1.09290000  -1.33790000   0.19890000
 O   1.46180000  -2.49940000   0.31810000
 C  -0.32870000  -0.96100000   0.04010000
 O  -1.27520000  -1.96490000   0.02620000
 N  -2.62120000  -1.52290000  -0.13040000
 N  -2.98790000  -0.32480000  -0.25200000
 N  -2.01410000   0.60040000  -0.22990000
 C  -0.69070000   0.31080000  -0.08650000
 H   2.43690000   1.85060000   0.08940000
 H   3.12250000  -0.53260000   0.32730000
 H  -2.25970000   1.58560000  -0.32480000
*

