# arene_22_rdkit_conf_1
%maxcore 16000
%pal nprocs 8 end
! m062x d3zero def2-SVP def2/J defgrid3 tightSCF Hirshfeld Normalprint Printbasis PrintMOs opt freq

%nbo NBOKEYLIST = "$NBO NPA BNDIDX $End" end

* xyz 0 1
 C  -2.12990000  -0.20210000  -0.06520000
 C  -1.11480000  -1.08750000  -0.05740000
 C   0.20330000  -0.58330000  -0.00810000
 C   1.48570000  -1.07250000   0.01670000
 C   2.29870000   0.08220000   0.06710000
 N   1.59130000   1.21870000   0.07400000
 N   0.31380000   0.78390000   0.02750000
 C  -0.78130000   1.64440000   0.01690000
 N  -1.99930000   1.17610000  -0.02880000
 H  -3.15530000  -0.56510000  -0.10290000
 H  -1.29840000  -2.15600000  -0.08800000
 H   1.79920000  -2.10650000   0.00100000
 H   3.37990000   0.13880000   0.09910000
 H  -0.59300000   2.72880000   0.04790000
*

