# arene_20_rdkit_conf_1
%maxcore 16000
%pal nprocs 8 end
! m062x d3zero def2-SVP def2/J defgrid3 tightSCF Hirshfeld Normalprint Printbasis PrintMOs opt freq

%nbo NBOKEYLIST = "$NBO NPA BNDIDX $End" end

* xyz 0 1
 O  -3.06280000   1.43760000   0.01130000
 C  -1.91400000   1.01040000   0.01110000
 C  -1.69100000  -0.44890000  -0.03910000
 C  -0.50410000  -1.06120000  -0.04550000
 C   0.70420000  -0.34490000  -0.00310000
 C   2.03490000  -0.70710000   0.00160000
 N   2.81970000   0.40880000   0.05280000
 N   2.02010000   1.46740000   0.08070000
 N   0.75460000   1.02220000   0.04740000
 S  -0.55690000   2.09480000   0.06890000
 H  -2.60600000  -1.03390000  -0.07270000
 H  -0.46650000  -2.14780000  -0.08460000
 H   2.46770000  -1.69730000  -0.02870000
*

