# arene_14_rdkit_conf_1
%maxcore 16000
%pal nprocs 8 end
! m062x d3zero def2-SVP def2/J defgrid3 tightSCF Hirshfeld Normalprint Printbasis PrintMOs opt freq

%nbo NBOKEYLIST = "$NBO NPA BNDIDX $End" end

* xyz 0 1
 O  -1.36900000   2.30170000   0.39780000
 C  -0.45710000   1.49840000   0.24440000
 S   1.22700000   1.99320000   0.26350000
 C   2.06720000   0.50530000   0.00790000
 C   1.48590000  -0.68930000  -0.15520000
 C   0.08820000  -0.88730000  -0.13860000
 N  -0.60830000  -1.99630000  -0.28480000
 N  -1.94280000  -1.68200000  -0.19190000
 C  -2.03020000  -0.38850000   0.00870000
 N  -0.77920000   0.16500000   0.05140000
 H   3.15290000   0.56440000  -0.01950000
 H   2.10430000  -1.57010000  -0.31060000
 H  -2.93900000   0.18570000   0.12700000
*

