# arene_35_rdkit_conf_1
%maxcore 16000
%pal nprocs 8 end
! m062x d3zero def2-SVP def2/J defgrid3 tightSCF Hirshfeld Normalprint Printbasis PrintMOs opt freq

%nbo NBOKEYLIST = "$NBO NPA BNDIDX $End" end

* xyz 0 1
 O  -3.39100000  -1.20560000  -0.53180000
 C  -2.28650000  -0.71860000  -0.32820000
 C  -2.14320000   0.72120000  -0.05190000
 C  -0.93770000   1.26110000   0.15370000
 C   0.25240000   0.44670000   0.10470000
 C   1.58130000   1.04500000   0.35180000
 O   1.71260000   2.05540000   1.03030000
 S   2.92560000   0.32730000  -0.47360000
 C   2.52380000  -1.33350000  -0.11370000
 O   3.43250000  -2.13660000   0.06330000
 O   1.22240000  -1.76060000  -0.08990000
 C   0.13730000  -0.86890000  -0.12120000
 O  -1.13760000  -1.45820000  -0.33890000
 H  -3.05660000   1.30250000  -0.02170000
 H  -0.83520000   2.32280000   0.36700000
*

