# arene_215_rdkit_conf_1
%maxcore 16000
%pal nprocs 8 end
! m062x d3zero def2-SVP def2/J defgrid3 tightSCF Hirshfeld Normalprint Printbasis PrintMOs opt freq

%nbo NBOKEYLIST = "$NBO NPA BNDIDX $End" end

* xyz 0 1
 O  -1.35480000   2.28820000   0.01450000
 C  -1.01890000   1.10840000  -0.01250000
 C  -2.10940000   0.11570000  -0.10930000
 C  -1.79250000  -1.17700000  -0.14160000
 N  -0.51560000  -1.65100000  -0.09090000
 C   0.42370000  -0.76140000  -0.00630000
 C   1.81220000  -1.25460000   0.04970000
 N   2.83800000  -0.48690000   0.13440000
 O   2.61630000   0.90020000   0.17540000
 C   1.34680000   1.44710000   0.12790000
 O   1.26840000   2.67370000   0.17050000
 N   0.26110000   0.59310000   0.03670000
 H  -3.12690000   0.48130000  -0.15010000
 H  -2.57770000  -1.92730000  -0.21260000
 H   1.92910000  -2.34950000   0.01420000
*

