# arene_96_rdkit_conf_1
%maxcore 16000
%pal nprocs 8 end
! m062x d3zero def2-SVP def2/J defgrid3 tightSCF Hirshfeld Normalprint Printbasis PrintMOs opt freq

%nbo NBOKEYLIST = "$NBO NPA BNDIDX $End" end

* xyz 0 1
 C  -2.26740000   0.21590000   0.25190000
 C  -1.91720000  -1.06750000   0.28010000
 O  -0.62070000  -1.51250000   0.15330000
 N   0.35790000  -0.49920000  -0.01480000
 C   1.66070000  -0.91280000  -0.14400000
 C   2.69520000  -0.08550000  -0.30870000
 S   2.49220000   1.62940000  -0.37710000
 N   0.84370000   1.86850000  -0.19840000
 C   0.02250000   0.86020000  -0.04880000
 N  -1.30820000   1.15800000   0.08990000
 H  -3.28830000   0.56430000   0.35190000
 H  -2.60460000  -1.89110000   0.40420000
 H   1.79250000  -1.98780000  -0.10160000
 H   3.70150000  -0.47700000  -0.40460000
 H  -1.55990000   2.13700000   0.06660000
*

