# arene_126_rdkit_conf_1
%maxcore 16000
%pal nprocs 8 end
! m062x d3zero def2-SVP def2/J defgrid3 tightSCF Hirshfeld Normalprint Printbasis PrintMOs opt freq

%nbo NBOKEYLIST = "$NBO NPA BNDIDX $End" end

* xyz 0 1
 O   1.98070000  -2.29970000  -0.07880000
 C   1.79140000  -1.07870000  -0.07930000
 N   2.86390000  -0.23900000  -0.34180000
 N   2.87910000   0.96970000  -0.03680000
 S   1.54980000   1.70730000   0.61940000
 N   0.26910000   0.84470000   0.03280000
 O  -0.93790000   1.29900000   0.72750000
 C  -2.03580000   0.78300000   0.08670000
 C  -2.13690000  -0.49030000  -0.30140000
 S  -0.85150000  -1.61100000  -0.02450000
 N   0.49980000  -0.54190000   0.15870000
 H  -2.82540000   1.51500000   0.00080000
 H  -3.04630000  -0.85810000  -0.76340000
*

