# arene_713_rdkit_conf_1
%maxcore 16000
%pal nprocs 8 end
! m062x d3zero def2-SVP def2/J defgrid3 tightSCF Hirshfeld Normalprint Printbasis PrintMOs opt freq

%nbo NBOKEYLIST = "$NBO NPA BNDIDX $End" end

* xyz 0 1
 C   2.20660000   0.93830000  -0.03450000
 C   2.43240000  -0.38570000  -0.14200000
 N   1.36770000  -1.26250000  -0.15620000
 C   0.06450000  -0.79330000  -0.06100000
 O  -0.97530000  -1.73130000  -0.08100000
 C  -2.27050000  -1.23530000   0.01580000
 C  -2.52220000   0.07690000   0.12360000
 N  -1.49130000   0.98060000   0.14140000
 C  -0.18150000   0.55560000   0.04920000
 N   0.91210000   1.41760000   0.06120000
 H   2.99330000   1.68260000  -0.01700000
 H   3.41860000  -0.82650000  -0.22040000
 H   1.50610000  -2.25880000  -0.23580000
 H  -3.00750000  -2.02240000  -0.00720000
 H  -3.52200000   0.48750000   0.20040000
 H  -1.67820000   1.96810000   0.22280000
 H   0.74730000   2.40850000   0.14080000
*

