# arene_30_rdkit_conf_1
%maxcore 16000
%pal nprocs 8 end
! m062x d3zero def2-SVP def2/J defgrid3 tightSCF Hirshfeld Normalprint Printbasis PrintMOs opt freq

%nbo NBOKEYLIST = "$NBO NPA BNDIDX $End" end

* xyz 0 1
 O  -2.15650000  -2.16470000  -0.13020000
 C  -1.65860000  -1.05590000  -0.05950000
 C  -2.42860000   0.21140000   0.03010000
 C  -1.51560000   1.18930000   0.08930000
 N  -0.24530000   0.69900000   0.04830000
 C   0.96920000   1.36260000   0.08450000
 O   1.09950000   2.58210000   0.16500000
 N   2.07830000   0.52940000   0.02160000
 C   1.99660000  -0.84120000  -0.06930000
 C   0.80010000  -1.44210000  -0.10150000
 N  -0.32880000  -0.67930000  -0.04320000
 H  -3.50060000   0.26890000   0.04100000
 H  -1.68790000   2.25410000   0.16150000
 H   2.97780000   0.99290000   0.04660000
 H   2.93080000  -1.39020000  -0.11200000
 H   0.66960000  -2.51640000  -0.17230000
*

