# arene_4_rdkit_conf_1
%maxcore 16000
%pal nprocs 8 end
! m062x d3zero def2-SVP def2/J defgrid3 tightSCF Hirshfeld Normalprint Printbasis PrintMOs opt freq

%nbo NBOKEYLIST = "$NBO NPA BNDIDX $End" end

* xyz 0 1
 O  -3.57050000  -1.26770000   0.34080000
 C  -2.60500000  -0.57150000   0.57390000
 C  -2.50640000   0.88410000   0.23260000
 N  -1.45160000   1.52780000  -0.16330000
 C  -0.24630000   0.85880000  -0.28320000
 S   0.94660000   1.59870000  -1.33830000
 C   2.36100000   0.58650000  -1.25950000
 O   3.36610000   0.84150000  -1.91250000
 C   2.34440000  -0.59960000  -0.38800000
 C   1.29760000  -0.97550000   0.35130000
 C   0.03270000  -0.27470000   0.40130000
 S  -1.17450000  -0.98700000   1.44190000
 H  -3.46370000   1.42300000   0.31740000
 H   3.26630000  -1.17210000  -0.38140000
 H   1.40340000  -1.87250000   0.96000000
*

